ssat_solver_solve2
#level: 2
Abc_NtkNodeNum(s->pNtk): 2729  , BDD limit: 10240
level 1: 20 element
Exist
existence_eliminate_scope
Abc_NtkIsBddLogic(pNtk): 0
Abc_NtkIsStrash(pNtk): 1
existence_eliminate_scope_aig
exist by BDD failed
Abc_NtkNodeNum(s->pNtk): 15376411  , BDD limit: 18451693
Build BDD success
level 0: 20 element
Random
c ssat solving in ABC
#var: 40
s SATISFIABLE
  > Upper bound = 1.000000e+00
  > Lower bound = 1.000000e+00
FINISHED CPU 1702.36 MEM 0 MAXMEM 3004072 STALE 0 MAXMEM_RSS 2825228
<time name="ALL">1702360</time>
real 1702.91
user 1968.82
sys 693.76
